words_hard_train/951.qaiger
aag 176 24 0 1 152
2
4
12
14
18
22
26
30
34
44
46
50
54
58
62
66
70
144
152
168
184
200
216
232
353
6 2 4
8 3 5
10 7 9
16 13 15
20 16 19
24 20 23
28 24 27
32 28 31
36 32 35
38 10 37
40 11 36
42 39 41
48 45 47
52 48 51
56 52 55
60 56 59
64 60 63
68 64 67
72 68 71
74 43 73
76 42 72
78 75 77
80 65 71
82 81 67
84 80 66
86 83 85
88 61 71
90 89 63
92 88 62
94 91 93
96 57 71
98 97 59
100 96 58
102 99 101
104 53 71
106 105 54
108 104 55
110 107 109
112 49 71
114 113 50
116 112 51
118 115 117
120 44 46
122 121 112
124 46 70
126 123 125
128 118 126
130 110 128
132 102 131
134 95 133
136 86 135
138 79 137
140 78 136
142 139 141
146 144 12
148 12 14
150 149 17
154 151 153
156 150 152
158 155 157
160 146 158
162 161 157
164 17 18
166 165 21
170 167 169
172 166 168
174 171 173
176 163 174
178 177 173
180 21 22
182 181 25
186 183 185
188 182 184
190 187 189
192 179 190
194 193 189
196 25 26
198 197 29
202 199 201
204 198 200
206 203 205
208 195 206
210 209 205
212 29 30
214 213 33
218 215 217
220 214 216
222 219 221
224 211 222
226 225 221
228 33 34
230 229 37
234 231 233
236 230 232
238 235 237
240 227 238
242 241 237
244 143 243
246 142 242
248 245 247
250 87 134
252 251 137
254 226 239
256 255 241
258 252 257
260 248 259
262 103 130
264 263 133
266 194 207
268 267 209
270 265 269
272 264 268
274 271 273
276 119 127
278 277 129
280 162 175
282 281 177
284 279 283
286 111 129
288 287 131
290 178 191
292 291 193
294 288 292
296 285 295
298 147 159
300 299 161
302 301 126
304 300 127
306 303 305
308 296 306
310 145 13
312 311 147
314 313 44
316 312 45
318 315 317
320 278 282
322 289 293
324 321 323
326 318 324
328 308 326
330 275 328
332 253 256
334 330 333
336 94 132
338 337 135
340 210 223
342 341 225
344 339 343
346 338 342
348 345 347
350 334 348
352 260 350
i0 2 y2[7]
i1 2 y1[7]
i2 2 y1[0]
i3 2 y1[1]
i4 2 y1[2]
i5 2 y1[3]
i6 2 y1[4]
i7 2 y1[5]
i8 2 y1[6]
i9 1 x2[0]
i10 1 x2[1]
i11 1 x2[2]
i12 1 x2[3]
i13 1 x2[4]
i14 1 x2[5]
i15 1 x2[6]
i16 1 x2[7]
i17 2 y2[0]
i18 2 y2[1]
i19 2 y2[2]
i20 2 y2[3]
i21 2 y2[4]
i22 2 y2[5]
i23 2 y2[6]
o0 bool[0]
c
simplified
  !=
    subtract
      2 y2
      2 y1
    subtract
      174
      abs
        1 x2
