words_hard_train/951.qaiger.qdimacs
p cnf 176 457
a 33 35 22 23 25 27 29 31 0
e 1 2 3 4 5 6 7 8 9 10 11 12 13 14 15 16 17 18 19 20 21 24 26 28 30 32 34 36 37 38 39 40 41 42 43 44 45 46 47 48 49 50 51 52 53 54 55 56 57 58 59 60 61 62 63 64 65 66 67 68 69 70 71 72 73 74 75 76 77 78 79 80 81 82 83 84 85 86 87 88 89 90 91 92 93 94 95 96 97 98 99 100 101 102 103 104 105 106 107 108 109 110 111 112 113 114 115 116 117 118 119 120 121 122 123 124 125 126 127 128 129 130 131 132 133 134 135 136 137 138 139 140 141 142 143 144 145 146 147 148 149 150 151 152 153 154 155 156 157 158 159 160 161 162 163 164 165 166 167 168 169 170 171 172 173 174 175 176 0
-1 -2 3 0
1 -3 0
2 -3 0
1 2 4 0
-1 -4 0
-2 -4 0
3 4 5 0
-3 -5 0
-4 -5 0
6 7 8 0
-6 -8 0
-7 -8 0
-8 9 10 0
8 -10 0
-9 -10 0
-10 11 12 0
10 -12 0
-11 -12 0
-12 13 14 0
12 -14 0
-13 -14 0
-14 15 16 0
14 -16 0
-15 -16 0
-16 17 18 0
16 -18 0
-17 -18 0
-5 18 19 0
5 -19 0
-18 -19 0
5 -18 20 0
-5 -20 0
18 -20 0
19 20 21 0
-19 -21 0
-20 -21 0
22 23 24 0
-22 -24 0
-23 -24 0
-24 25 26 0
24 -26 0
-25 -26 0
-26 27 28 0
26 -28 0
-27 -28 0
-28 29 30 0
28 -30 0
-29 -30 0
-30 31 32 0
30 -32 0
-31 -32 0
-32 33 34 0
32 -34 0
-33 -34 0
-34 35 36 0
34 -36 0
-35 -36 0
21 36 37 0
-21 -37 0
-36 -37 0
-21 -36 38 0
21 -38 0
36 -38 0
37 38 39 0
-37 -39 0
-38 -39 0
32 35 40 0
-32 -40 0
-35 -40 0
40 33 41 0
-40 -41 0
-33 -41 0
-40 -33 42 0
40 -42 0
33 -42 0
41 42 43 0
-41 -43 0
-42 -43 0
30 35 44 0
-30 -44 0
-35 -44 0
44 31 45 0
-44 -45 0
-31 -45 0
-44 -31 46 0
44 -46 0
31 -46 0
45 46 47 0
-45 -47 0
-46 -47 0
28 35 48 0
-28 -48 0
-35 -48 0
48 29 49 0
-48 -49 0
-29 -49 0
-48 -29 50 0
48 -50 0
29 -50 0
49 50 51 0
-49 -51 0
-50 -51 0
26 35 52 0
-26 -52 0
-35 -52 0
52 -27 53 0
-52 -53 0
27 -53 0
-52 27 54 0
52 -54 0
-27 -54 0
53 54 55 0
-53 -55 0
-54 -55 0
24 35 56 0
-24 -56 0
-35 -56 0
56 -25 57 0
-56 -57 0
25 -57 0
-56 25 58 0
56 -58 0
-25 -58 0
57 58 59 0
-57 -59 0
-58 -59 0
-22 -23 60 0
22 -60 0
23 -60 0
60 -56 61 0
-60 -61 0
56 -61 0
-23 -35 62 0
23 -62 0
35 -62 0
61 62 63 0
-61 -63 0
-62 -63 0
-59 -63 64 0
59 -64 0
63 -64 0
-55 -64 65 0
55 -65 0
64 -65 0
-51 65 66 0
51 -66 0
-65 -66 0
47 66 67 0
-47 -67 0
-66 -67 0
-43 67 68 0
43 -68 0
-67 -68 0
39 68 69 0
-39 -69 0
-68 -69 0
-39 -68 70 0
39 -70 0
68 -70 0
69 70 71 0
-69 -71 0
-70 -71 0
-72 -6 73 0
72 -73 0
6 -73 0
-6 -7 74 0
6 -74 0
7 -74 0
74 8 75 0
-74 -75 0
-8 -75 0
75 76 77 0
-75 -77 0
-76 -77 0
-75 -76 78 0
75 -78 0
76 -78 0
77 78 79 0
-77 -79 0
-78 -79 0
-73 -79 80 0
73 -80 0
79 -80 0
80 78 81 0
-80 -81 0
-78 -81 0
8 -9 82 0
-8 -82 0
9 -82 0
82 10 83 0
-82 -83 0
-10 -83 0
83 84 85 0
-83 -85 0
-84 -85 0
-83 -84 86 0
83 -86 0
84 -86 0
85 86 87 0
-85 -87 0
-86 -87 0
81 -87 88 0
-81 -88 0
87 -88 0
88 86 89 0
-88 -89 0
-86 -89 0
10 -11 90 0
-10 -90 0
11 -90 0
90 12 91 0
-90 -91 0
-12 -91 0
91 92 93 0
-91 -93 0
-92 -93 0
-91 -92 94 0
91 -94 0
92 -94 0
93 94 95 0
-93 -95 0
-94 -95 0
89 -95 96 0
-89 -96 0
95 -96 0
96 94 97 0
-96 -97 0
-94 -97 0
12 -13 98 0
-12 -98 0
13 -98 0
98 14 99 0
-98 -99 0
-14 -99 0
99 100 101 0
-99 -101 0
-100 -101 0
-99 -100 102 0
99 -102 0
100 -102 0
101 102 103 0
-101 -103 0
-102 -103 0
97 -103 104 0
-97 -104 0
103 -104 0
104 102 105 0
-104 -105 0
-102 -105 0
14 -15 106 0
-14 -106 0
15 -106 0
106 16 107 0
-106 -107 0
-16 -107 0
107 108 109 0
-107 -109 0
-108 -109 0
-107 -108 110 0
107 -110 0
108 -110 0
109 110 111 0
-109 -111 0
-110 -111 0
105 -111 112 0
-105 -112 0
111 -112 0
112 110 113 0
-112 -113 0
-110 -113 0
16 -17 114 0
-16 -114 0
17 -114 0
114 18 115 0
-114 -115 0
-18 -115 0
115 116 117 0
-115 -117 0
-116 -117 0
-115 -116 118 0
115 -118 0
116 -118 0
117 118 119 0
-117 -119 0
-118 -119 0
113 -119 120 0
-113 -120 0
119 -120 0
120 118 121 0
-120 -121 0
-118 -121 0
71 121 122 0
-71 -122 0
-121 -122 0
-71 -121 123 0
71 -123 0
121 -123 0
122 123 124 0
-122 -124 0
-123 -124 0
43 -67 125 0
-43 -125 0
67 -125 0
125 68 126 0
-125 -126 0
-68 -126 0
-113 119 127 0
113 -127 0
-119 -127 0
127 120 128 0
-127 -128 0
-120 -128 0
-126 128 129 0
126 -129 0
-128 -129 0
-124 129 130 0
124 -130 0
-129 -130 0
51 -65 131 0
-51 -131 0
65 -131 0
131 66 132 0
-131 -132 0
-66 -132 0
-97 103 133 0
97 -133 0
-103 -133 0
133 104 134 0
-133 -134 0
-104 -134 0
132 134 135 0
-132 -135 0
-134 -135 0
-132 -134 136 0
132 -136 0
134 -136 0
135 136 137 0
-135 -137 0
-136 -137 0
59 63 138 0
-59 -138 0
-63 -138 0
138 64 139 0
-138 -139 0
-64 -139 0
-81 87 140 0
81 -140 0
-87 -140 0
140 88 141 0
-140 -141 0
-88 -141 0
139 141 142 0
-139 -142 0
-141 -142 0
55 64 143 0
-55 -143 0
-64 -143 0
143 65 144 0
-143 -144 0
-65 -144 0
-89 95 145 0
89 -145 0
-95 -145 0
145 96 146 0
-145 -146 0
-96 -146 0
-144 -146 147 0
144 -147 0
146 -147 0
142 147 148 0
-142 -148 0
-147 -148 0
73 79 149 0
-73 -149 0
-79 -149 0
149 80 150 0
-149 -150 0
-80 -150 0
150 -63 151 0
-150 -151 0
63 -151 0
-150 63 152 0
150 -152 0
-63 -152 0
151 152 153 0
-151 -153 0
-152 -153 0
-148 -153 154 0
148 -154 0
153 -154 0
72 6 155 0
-72 -155 0
-6 -155 0
155 73 156 0
-155 -156 0
-73 -156 0
156 -22 157 0
-156 -157 0
22 -157 0
-156 22 158 0
156 -158 0
-22 -158 0
157 158 159 0
-157 -159 0
-158 -159 0
-139 -141 160 0
139 -160 0
141 -160 0
144 146 161 0
-144 -161 0
-146 -161 0
160 161 162 0
-160 -162 0
-161 -162 0
-159 -162 163 0
159 -163 0
162 -163 0
-154 -163 164 0
154 -164 0
163 -164 0
137 -164 165 0
-137 -165 0
164 -165 0
126 -128 166 0
-126 -166 0
128 -166 0
-165 166 167 0
165 -167 0
-166 -167 0
-47 -66 168 0
47 -168 0
66 -168 0
168 67 169 0
-168 -169 0
-67 -169 0
-105 111 170 0
105 -170 0
-111 -170 0
170 112 171 0
-170 -171 0
-112 -171 0
169 171 172 0
-169 -172 0
-171 -172 0
-169 -171 173 0
169 -173 0
171 -173 0
172 173 174 0
-172 -174 0
-173 -174 0
-167 -174 175 0
167 -175 0
174 -175 0
-130 -175 176 0
130 -176 0
175 -176 0
-176 0
